decision_x1=[0,4];
decision_x2=[0,4];
decision_x3=[0,4];
decision_x4=[0,4];
random_y1=[0,4];
random_y2=[0,4];
constraint_x2_x1=[
0,1,3.8|
0,2,2|
0,3,8.7|
0,4,4.9|
1,0,4.8|
1,2,0.93|
1,3,8.8|
1,4,2.8|
2,0,7.8|
2,1,8.5|
2,3,1.8|
2,4,1.5|
3,0,6.4|
3,1,7.1|
3,2,5.1|
3,4,3.9|
4,0,2|
4,1,2.6|
4,2,7.3|
4,3,3.6|
];
constraint_x3_x2=[
0,1,8.2|
0,2,4.3|
0,3,6.5|
0,4,3.3|
1,0,9.9|
1,2,2.1|
1,3,6.1|
1,4,1.2|
2,0,0.96|
2,1,0.42|
2,3,2.2|
2,4,9|
3,0,5.1|
3,1,1.2|
3,2,3.7|
3,4,6.7|
4,0,6.3|
4,1,1.2|
4,2,10|
4,3,0.38|
];
constraint_x4_x2=[
0,1,9.9|
0,2,8.3|
0,3,6.1|
0,4,0.7|
1,0,0.38|
1,2,6.4|
1,3,1.5|
1,4,3.8|
2,0,1.7|
2,1,2.2|
2,3,9|
2,4,1.7|
3,0,0.62|
3,1,8.2|
3,2,6.4|
3,4,0.56|
4,0,9.3|
4,1,7.5|
4,2,6.4|
4,3,2.6|
];
constraint_x1_y1=[
0,0,2.1|
0,1,0.55|
0,2,5.5|
0,3,6.6|
0,4,8.1|
1,0,5.5|
1,1,5|
1,2,5.2|
1,3,7.8|
1,4,4.7|
2,0,9|
2,1,8.9|
2,2,2.6|
2,3,6.9|
2,4,2.7|
3,0,9.6|
3,1,7.5|
3,2,2.4|
3,3,1.4|
3,4,3.7|
4,0,9.2|
4,1,3.3|
4,2,1.4|
4,3,7.5|
4,4,7.8|
];
constraint_x2_y2=[
0,0,4.7|
0,1,2.9|
0,2,7.8|
0,3,4.8|
0,4,6|
1,0,5.8|
1,1,4.7|
1,2,1.3|
1,3,1.4|
1,4,7.2|
2,0,3.8|
2,1,7.1|
2,2,1.3|
2,3,8.9|
2,4,2.3|
3,0,2.3|
3,1,7.2|
3,2,2.8|
3,3,5.7|
3,4,3.4|
4,0,6.1|
4,1,3.3|
4,2,5.7|
4,3,7.9|
4,4,6.5|
];
initial_distribution_y1=[0.098,0.072,0.29,0.26,0.28];
initial_distribution_y2=[0.14,0.21,0.32,0.29,0.041];
transition_y1=[
0.2,0.27,0.024,0.2,0.3|
0.3,0.26,0.29,0.033,0.11|
0.21,0.14,0.3,0.18,0.17|
0.35,0.29,0.18,0.077,0.1|
0.35,0.26,0.038,0.052,0.31|
];
transition_y2=[
0.016,0.16,0.28,0.22,0.33|
0.54,0.021,0.14,0.013,0.28|
0.36,0.038,0.19,0.31,0.1|
0.23,0.33,0.02,0.2,0.23|
0.36,0.25,0.096,0.2,0.094|
];
